5 5
7 3 4 12 1 6 5 11 4 4 13 5 19 2 6 1 10 2 2 2 3 2 1 5 8 4 5 15 2 10 3 7 1 13 4 1 14 4 18 3 16 2 19 3 2 6 1 13 5 7
8 1 3 3 5 2 6 1 14 5 11 4 14 3 17 2 3 18 5 10 3 3 6 1 12 5 16 4 4 12 5 13 2 15 3 13 4 2 6 1 11 5 6 4 7 2 3 11 4 14 3 1 10 2 20 5 14
6 5 3 5 1 12 5 8 2 5 4 17 2 3 15 5 14 4 2 18 4 19 3 13 1 14 4 4 5 1 8 3 12 5 13 1 5 15 3 1 3 4 5 2 4
6 3 3 6 5 10 4 15 1 3 18 1 1 8 3 4 16 1 16 3 5 2 1 14 4 18 3 4 16 5 11 2 18
4 5 2 16 4 20 1 12 3 16 5 14 4 3 4 4 19 5 18 2 7 3 2 9 5 10 1 14 3 5 3 4 18 1 4